StringID		Type		X		Y		Demand		ServiceBy
D0		d		22.5		29.2		0.0		-
C1		c		25.0		9.8		1.71		D/T
C2		c		26.4		-35.5		2.88		D/T
C3		c		12.1		-21.3		1.56		D/T
C4		c		-15.7		-7.5		4.83		D/T
C5		c		12.6		-32.4		1.72		D/T